Solutions	
863.0	
790.0	
739.0	
709.0	
680.0	
655.0	
640.0	
633.0	
621.0	
617.0	
614.0	
614.0	
603.0	
550.0	
520.0	
495.0	
478.0	
471.0	
455.0	
449.0	
448.0	
447.0	
440.0	
434.0	
434.0	
434.0	
436.0	
439.0	
444.0	
450.0	
456.0	
461.0	
469.0	
478.0	
487.0	
497.0	
509.0	
521.0	
537.0	
555.0	
565.0	
570.0	
584.0	
603.0	
596.0	
592.0	
601.0	
605.0	
596.0	
578.0	
577.0	
569.0	
550.0	
550.0	
563.0	
562.0	
560.0	
563.0	
581.0	
576.0	
574.0	
575.0	
576.0	
575.0	
579.0	
579.0	
585.0	
539.0	
548.0	
550.0	
562.0	
573.0	
585.0	
580.0	
586.0	
586.0	
559.0	
559.0	
559.0	
560.0	
571.0	
583.0	
596.0	
614.0	
600.0	
613.0	
619.0	
591.0	
598.0	
604.0	
577.0	
570.0	
561.0	
561.0	
566.0	
561.0	
568.0	
571.0	
565.0	
558.0	
563.0	
570.0	
581.0	
572.0	
585.0	
585.0	
585.0	
580.0	
603.0	
601.0	
584.0	
578.0	
541.0	
534.0	
540.0	
548.0	
540.0	
540.0	
546.0	
553.0	
567.0	
582.0	
607.0	
624.0	
635.0	
655.0	
636.0	
636.0	
636.0	
645.0	
634.0	
614.0	
599.0	
597.0	
590.0	
590.0	
593.0	
597.0	
584.0	
578.0	
576.0	
585.0	
582.0	
571.0	
561.0	
568.0	
570.0	
564.0	
568.0	
572.0	
595.0	
606.0	
625.0	
649.0	
657.0	
643.0	
633.0	
627.0	
627.0	
621.0	
623.0	
629.0	
637.0	
642.0	
619.0	
613.0	
623.0	
624.0	
629.0	
627.0	
636.0	
631.0	
627.0	
627.0	
626.0	
633.0	
651.0	
623.0	
601.0	
600.0	
602.0	
618.0	
615.0	
563.0	
561.0	
557.0	
558.0	
567.0	
567.0	
567.0	
579.0	
584.0	
591.0	
597.0	
589.0	
594.0	
587.0	
577.0	
583.0	
596.0	
607.0	
602.0	
610.0	
611.0	
610.0	
589.0	
564.0	
564.0	
569.0	
566.0	
574.0	
581.0	
579.0	
557.0	
566.0	
589.0	
584.0	
585.0	
597.0	
597.0	
594.0	
602.0	
606.0	
587.0	
